p cnf 30 45
13 3 9 0
29 -20 24 0
-5 30 -29 0
-17 -20 2 0
4 -18 2 0
-3 10 -17 0
-8 1 22 0
25 26 21 0
17 16 -25 0
-30 -19 -20 0
26 30 -29 0
-9 10 -6 0
18 -25 -10 0
2 -13 -14 0
-14 12 11 0
-27 10 -14 0
14 -9 19 0
7 15 -14 0
13 -28 -6 0
-11 27 10 0
-1 13 -11 0
-29 -10 13 0
-1 -3 -14 0
22 21 6 0
27 -20 -16 0
27 13 15 0
-29 10 -4 0
-12 -24 6 0
29 27 -18 0
22 13 -10 0
-14 17 19 0
-12 19 4 0
-28 1 -12 0
3 -21 23 0
25 26 -12 0
7 9 5 0
-10 -20 16 0
14 -11 23 0
26 -24 -11 0
3 -8 30 0
6 -2 -17 0
-9 20 -26 0
7 -12 -19 0
-11 17 26 0
8 -22 -11 0
